crystal structure from CrS2 with Hexagin
   1.00000000000000     
     7.9371692346344274    4.5828542050652805    0.0000000000000000
    -7.9371691084226494    4.5828544236781150    0.0000000000000000
     0.0000000000000000    0.0000000000000000   30.0000000000000000
   Cr   S 
     9    18
Direct
 -0.0000627281327308 -0.0000627281327308 -0.0000000000000000
  0.9999372717994409  0.3332706151097061 -0.0000000000000000
 -0.0000627281115140  0.6666039583936740 -0.0000000000000000
  0.3332706151538521 -0.0000627281256609 -0.0000000000000000
  0.3332706150860166  0.3332706151167760 -0.0000000000000000
  0.3332706151750618  0.6666039584007439 -0.0000000000000000
  0.6666039584404277 -0.0000627281185910 -0.0000000000000000
  0.6666039583725993  0.3332706151238459 -0.0000000000000000
  0.6666039584616446  0.6666039584078138 -0.0000000000000000
  0.1110469120007617  0.2221507355879269  0.9507350494503757
  0.2221507355433261  0.1110469119837371  0.0492649393496231
  0.1110469119329333  0.5554840788303639  0.9507350494503757
  0.2221507356323713  0.4443802552677123  0.0492649393496231
  0.1110469119207120  0.8888173922552798  0.9507350494503757
  0.2221507355645358  0.7777135985101423  0.0492649393496231
  0.4443802552873446  0.2221507355949968  0.9507350494503757
  0.5554840788299020  0.1110469119908141  0.0492649393496231
  0.4443802552195091  0.5554840788374338  0.9507350494503757
  0.5554840787620736  0.4443802552332439  0.0492649393496231
  0.4443802552072877  0.8888173922623497  0.9507350494503757
  0.5554840788511188  0.7777135985172193  0.0492649393496231
  0.7777135984747147  0.2221507355028678  0.9507350494503757
  0.8888173923566387  0.1110469119958235  0.0492649393496231
  0.7777135985060922  0.5554840788445037  0.9507350494503757
  0.8888173922888103  0.4443802552382603  0.0492649393496231
  0.7777135984938709  0.8888173922694267  0.9507350494503757
  0.8888173923201808  0.7777135985798963  0.0492649393496231
 
  0.00000000E+00  0.00000000E+00  0.00000000E+00
  0.00000000E+00  0.00000000E+00  0.00000000E+00
  0.00000000E+00  0.00000000E+00  0.00000000E+00
  0.00000000E+00  0.00000000E+00  0.00000000E+00
  0.00000000E+00  0.00000000E+00  0.00000000E+00
  0.00000000E+00  0.00000000E+00  0.00000000E+00
  0.00000000E+00  0.00000000E+00  0.00000000E+00
  0.00000000E+00  0.00000000E+00  0.00000000E+00
  0.00000000E+00  0.00000000E+00  0.00000000E+00
  0.00000000E+00  0.00000000E+00  0.00000000E+00
  0.00000000E+00  0.00000000E+00  0.00000000E+00
  0.00000000E+00  0.00000000E+00  0.00000000E+00
  0.00000000E+00  0.00000000E+00  0.00000000E+00
  0.00000000E+00  0.00000000E+00  0.00000000E+00
  0.00000000E+00  0.00000000E+00  0.00000000E+00
  0.00000000E+00  0.00000000E+00  0.00000000E+00
  0.00000000E+00  0.00000000E+00  0.00000000E+00
  0.00000000E+00  0.00000000E+00  0.00000000E+00
  0.00000000E+00  0.00000000E+00  0.00000000E+00
  0.00000000E+00  0.00000000E+00  0.00000000E+00
  0.00000000E+00  0.00000000E+00  0.00000000E+00
  0.00000000E+00  0.00000000E+00  0.00000000E+00
  0.00000000E+00  0.00000000E+00  0.00000000E+00
  0.00000000E+00  0.00000000E+00  0.00000000E+00
  0.00000000E+00  0.00000000E+00  0.00000000E+00
  0.00000000E+00  0.00000000E+00  0.00000000E+00
  0.00000000E+00  0.00000000E+00  0.00000000E+00
